(set-logic ALL)
(set-option :produce-models true)
(define-fun-rec str.toLower ((x String)) String
  (ite (= x "")
      ""
      (let ((Head (str.at x 0)))
        (str.++ 
          (ite (and (<= 65 (str.to_code Head)) 
                     (<= (str.to_code Head) 90))
               (str.from_code (+ (str.to_code Head) 32))
               Head)
          (str.toLower (str.substr x 1 (- (str.len x) 1)))))))
(declare-fun sym205 () String)
(declare-fun sym547 () String)
(declare-fun sym4639 () String)
(declare-fun sym1028 () String)
(declare-fun sym3789 () String)
(declare-fun sym4855 () String)
(declare-fun sym161 () String)
(declare-fun sym2092 () String)
(declare-fun sym812 () String)
(declare-fun sym2308 () String)
(declare-fun sym1659 () String)
(declare-fun sym1876 () String)
(declare-fun sym2943 () String)
(declare-fun sym2525 () String)
(declare-fun sym5438 () String)
(declare-fun sym3577 () String)
(declare-fun sym1234 () String)
(declare-fun sym3159 () String)
(declare-fun sym4005 () String)
(declare-fun sym2741 () String)
(declare-fun sym4423 () String)
(declare-fun sym5058 () String)
(declare-fun sym1450 () String)
(declare-fun sym3375 () String)
(declare-fun sym4221 () String)
(declare-fun sym5252 () String)

(assert (not (= "" sym1876 )))
(assert (not (= "" sym4855 )))
(assert (not (= (str.toLower (str.substr sym2308  0 1))"k" )))
(assert (= (str.toLower (str.substr sym5058  0 1))"g" ))
(assert (= (str.toLower (str.substr sym5252  0 1))"g" ))
(assert (not (= (str.toLower (str.substr sym3577  0 1))"q" )))
(assert (not (= (str.toLower (str.substr sym3577  0 1))"p" )))
(assert (not (= (str.toLower (str.substr sym1234  0 1))"p" )))
(assert (not (= "" sym547 )))
(assert (not (= (str.toLower (str.substr sym1450  0 1))"q" )))
(assert (not (= "" sym3577 )))
(assert (not (= (str.toLower (str.substr sym2092  0 1))"k" )))
(assert (not (= "" "y" )))
(assert (not (= (str.toLower (str.substr sym4855  0 1))"q" )))
(assert (not (= "" sym5438 )))
(assert (not (= (str.toLower (str.substr sym1876  0 1))"g" )))
(assert (not (= (str.toLower (str.substr sym5058  0 1))"p" )))
(assert (not (= "" sym3375 )))
(assert (not (= (str.toLower (str.substr sym3789  0 1))"q" )))
(assert (not (= "y" "n" )))
(assert (= "y" "y" ))
(assert (not (= (str.toLower (str.substr sym3159  0 1))"p" )))
(assert (= (str.toLower (str.substr sym4005  0 1))"g" ))
(assert (not (= "" sym1028 )))
(assert (not (= (str.toLower (str.substr sym5438  0 1))"q" )))
(assert (not (= (str.toLower (str.substr sym4221  0 1))"q" )))
(assert (not (= (str.toLower (str.substr sym3375  0 1))"p" )))
(assert (not (= "" sym4005 )))
(assert (not (= "" sym205 )))
(assert (not (= "" sym161 )))
(assert (not (= "" sym2092 )))
(assert (not (= (str.toLower (str.substr sym4639  0 1))"q" )))
(assert (= (str.toLower (str.substr sym2741  0 1))"g" ))
(assert (not (= (str.toLower (str.substr sym4639  0 1))"p" )))
(assert (not (= (str.toLower (str.substr sym3159  0 1))"q" )))
(assert (= (str.toLower (str.substr sym1659  0 1))"g" ))
(assert (not (= (str.toLower (str.substr sym2741  0 1))"p" )))
(assert (not (= (str.toLower (str.substr sym4005  0 1))"p" )))
(assert (not (= (str.toLower (str.substr sym4855  0 1))"k" )))
(assert (not (= "" sym2943 )))
(assert (= (str.toLower (str.substr sym5438  0 1))"g" ))
(assert (not (= (str.toLower (str.substr sym4423  0 1))"q" )))
(assert (not (= "" sym5058 )))
(assert (not (= (str.toLower (str.substr sym812  0 1))"p" )))
(assert (not (= (str.toLower (str.substr sym1028  0 1))"k" )))
(assert (not (= (str.toLower (str.substr sym3577  0 1))"g" )))
(assert (not (= (str.toLower (str.substr sym2308  0 1))"r" )))
(assert (not (= (str.toLower (str.substr sym547  0 1))"p" )))
(assert (= (str.toLower (str.substr sym812  0 1))"g" ))
(assert (not (= "" sym3159 )))
(assert (not (= (str.toLower (str.substr sym1028  0 1))"q" )))
(assert (not (= (str.toLower (str.substr sym2741  0 1))"k" )))
(assert (not (= (str.toLower (str.substr sym4221  0 1))"k" )))
(assert (not (= (str.toLower (str.substr sym1876  0 1))"q" )))
(assert (= (str.toLower (str.substr sym4639  0 1))"g" ))
(assert (not (= (str.toLower (str.substr sym5058  0 1))"k" )))
(assert (not (= (str.toLower (str.substr sym4423  0 1))"k" )))
(assert (not (= (str.toLower (str.substr sym1450  0 1))"p" )))
(assert (not (= (str.toLower (str.substr sym3577  0 1))"k" )))
(assert (not (= (str.toLower (str.substr sym4855  0 1))"p" )))
(assert (not (= (str.toLower (str.substr sym5252  0 1))"q" )))
(assert (= (str.toLower (str.substr sym4423  0 1))"g" ))
(assert (not (= (str.toLower (str.substr sym2308  0 1))"g" )))
(assert (not (= (str.toLower (str.substr sym4005  0 1))"q" )))
(assert (not (= (str.toLower (str.substr sym1876  0 1))"p" )))
(assert (not (= (str.toLower (str.substr sym4639  0 1))"k" )))
(assert (not (= (str.toLower (str.substr sym2525  0 1))"p" )))
(assert (= (str.toLower (str.substr sym1450  0 1))"g" ))
(assert (= (str.toLower (str.substr sym1234  0 1))"g" ))
(assert (not (= (str.toLower (str.substr sym547  0 1))"q" )))
(assert (not (= "" (str.toLower (str.substr sym205  0 1)))))
(assert (= (str.toLower (str.substr sym2308  0 1))"h" ))
(assert (not (= "" sym812 )))
(assert (= (str.toLower (str.substr sym205  0 1))"y" ))
(assert (not (= (str.toLower (str.substr sym3375  0 1))"k" )))
(assert (not (= (str.toLower (str.substr sym5252  0 1))"p" )))
(assert (not (= (str.toLower (str.substr sym1234  0 1))"q" )))
(assert (not (= (str.toLower (str.substr sym3789  0 1))"k" )))
(assert (not (= (str.toLower (str.substr sym812  0 1))"q" )))
(assert (= (str.toLower (str.substr sym1876  0 1))"l" ))
(assert (not (= "" sym4423 )))
(assert (= "" "" ))
(assert (not (= (str.toLower (str.substr sym1659  0 1))"p" )))
(assert (not (= (str.toLower (str.substr sym4423  0 1))"p" )))
(assert (= (str.toLower (str.substr sym2943  0 1))"g" ))
(assert (not (= (str.toLower (str.substr sym2308  0 1))"p" )))
(assert (not (= (str.toLower (str.substr sym2741  0 1))"q" )))
(assert (= (str.toLower (str.substr sym3577  0 1))"l" ))
(assert (not (= (str.toLower (str.substr sym5252  0 1))"k" )))
(assert (not (= (str.toLower (str.substr sym3375  0 1))"q" )))
(assert (not (= (str.toLower (str.substr sym2308  0 1))"q" )))
(assert (not (= (str.toLower (str.substr sym5058  0 1))"q" )))
(assert (not (= (str.toLower (str.substr sym1028  0 1))"p" )))
(assert (not (= "" sym4221 )))
(assert (not (= "" sym2308 )))
(assert (not (= (str.toLower (str.substr sym1876  0 1))"r" )))
(assert (not (= (str.toLower (str.substr sym1450  0 1))"k" )))
(assert (not (= (str.toLower (str.substr sym3159  0 1))"k" )))
(assert (not (= (str.toLower (str.substr sym1876  0 1))"k" )))
(assert (not (= (str.toLower (str.substr sym2525  0 1))"k" )))
(assert (not (= (str.toLower (str.substr sym5438  0 1))"p" )))
(assert (not (= (str.toLower (str.substr sym4221  0 1))"p" )))
(assert (= (str.toLower (str.substr sym1028  0 1))"g" ))
(assert (= (str.toLower (str.substr sym547  0 1))"g" ))
(assert (= (str.toLower (str.substr sym2092  0 1))"g" ))
(assert (not (= (str.toLower (str.substr sym2943  0 1))"k" )))
(assert (not (= "" sym1234 )))
(assert (not (= "" sym1659 )))
(assert (not (= "" sym1450 )))
(assert (not (= "" "y" )))
(assert (not (= "" sym3789 )))
(assert (not (= (str.toLower (str.substr sym1659  0 1))"q" )))
(assert (= (str.toLower (str.substr sym3789  0 1))"g" ))
(assert (= (str.toLower (str.substr sym3159  0 1))"g" ))
(assert (not (= (str.toLower (str.substr sym2943  0 1))"p" )))
(assert (not (= (str.toLower (str.substr sym5438  0 1))"k" )))
(assert (not (= (str.toLower (str.substr sym2308  0 1))"l" )))
(assert (not (= "" sym4639 )))
(assert (not (= (str.toLower (str.substr sym812  0 1))"k" )))
(assert (not (= "" "q" )))
(assert (not (= (str.toLower (str.substr sym2092  0 1))"p" )))
(assert (not (= (str.toLower (str.substr sym1234  0 1))"k" )))
(assert (not (= (str.toLower (str.substr sym2943  0 1))"q" )))
(assert (= (str.toLower (str.substr sym2525  0 1))"g" ))
(assert (= (str.toLower (str.substr sym3375  0 1))"g" ))
(assert (not (= (str.toLower (str.substr sym1659  0 1))"k" )))
(assert (not (= (str.toLower (str.substr sym2525  0 1))"q" )))
(assert (not (= (str.toLower (str.substr sym547  0 1))"k" )))
(assert (not (= (str.toLower (str.substr sym3577  0 1))"r" )))
(assert (= (str.toLower (str.substr sym4221  0 1))"g" ))
(assert (not (= "" sym2741 )))
(assert (not (= (str.toLower (str.substr sym2092  0 1))"q" )))
(assert (not (= "" sym2525 )))
(assert (= (str.toLower (str.substr sym4855  0 1))"g" ))
(assert (not (= "" sym5252 )))
(assert (not (= (str.toLower (str.substr sym4005  0 1))"k" )))
(assert (not (= (str.toLower (str.substr sym3789  0 1))"p" )))
(check-sat)
(get-model)
(exit)
